30 22
1 2 3 4 5 6 7 8 9 10
11 12 13 14 15 16 17 18 19 20
21 22 23 24 25 26 27 28 29 30
1 4 7 10 13 16 19 22 25 28
2 5 8 11 14 17 20 23 26 29
3 6 9 12 15 18 21 24 27 30
1 11 21
2 12 22
3 13 23
4 14 24
5 15 25
6 16 26
7 17 27
8 18 28
9 19 29
10 20 30
1 5 9 13 17 21 25 29
2 6 10 14 18 22 26 30
3 7 11 15 19 23 27
4 8 12 16 20 24 28
1 15 30
10 20 25